
# PYTHONPATH must include directory above plugin directory.
#     Define either externally or here, then import plugin.
sys.path.insert(0, './..')
import ivo

molecule {
O
H 1 R
H 1 R 2 A

R = .9
A = 104.5
}

set {
  basis cc-pvdz
}

set ivo {
  print 1
  Hole  1
}

energy('ivo')

